1 3 100 21835.20
1 3 200 21984.87
1 3 300 22194.10
2 3 100 24341.35
2 3 200 24704.39
2 3 300 24647.61
3 3 100 23874.75
3 3 200 24222.11
3 3 300 24587.11
4 3 100 23850.87
4 3 200 23688.41
4 3 300 24008.82
5 3 100 23518.23
5 3 200 23219.16
5 3 300 23507.77
